(set-info :smt-lib-version 2.6)
(set-info :category "crafted")
(set-logic QF_FF)
(define-sort FF0 () (_ FiniteField 52435875175126190479447740508185965837690552500527637822603658699938581184513))
(declare-fun return_n3_alt () FF0)
(declare-fun is_zero_n35_alt () FF0)
(declare-fun mul_n44_alt () FF0)
(declare-fun is_zero_n12_alt () FF0)
(declare-fun is_zero_n47_alt () FF0)
(declare-fun mul_n50_alt () FF0)
(declare-fun mul_n21_alt () FF0)
(declare-fun mul_n56_alt () FF0)
(declare-fun mul_n59_alt () FF0)
(declare-fun mul_n62_alt () FF0)
(declare-fun mul_n42_alt () FF0)
(declare-fun mul_n19_alt () FF0)
(declare-fun is_zero_n54_alt () FF0)
(declare-fun mul_n63_alt () FF0)
(declare-fun mul_n43_alt () FF0)
(declare-fun mul_n55_alt () FF0)
(declare-fun mul_n20_alt () FF0)
(declare-fun mul_n58_alt () FF0)
(declare-fun mul_n61_alt () FF0)
(declare-fun mul_n29_alt () FF0)
(declare-fun mul_n64_alt () FF0)
(declare-fun is_zero_inv_n65_alt () FF0)
(declare-fun mul_n22_alt () FF0)
(declare-fun c_n2_alt () FF0)
(declare-fun mul_n24_alt () FF0)
(declare-fun mul_n7_alt () FF0)
(declare-fun f_n4_alt () FF0)
(declare-fun mul_n23_alt () FF0)
(declare-fun mul_n10_alt () FF0)
(declare-fun mul_n27_alt () FF0)
(declare-fun mul_n14_alt () FF0)
(declare-fun mul_n31_alt () FF0)
(declare-fun mul_n30_alt () FF0)
(declare-fun mul_n32_alt () FF0)
(declare-fun is_zero_n17_alt () FF0)
(declare-fun mul_n33_alt () FF0)
(declare-fun mul_n57_alt () FF0)
(declare-fun mul_n60_alt () FF0)
(declare-fun mul_n41_alt () FF0)
(declare-fun mul_n18_alt () FF0)
(declare-fun mul_n8_alt () FF0)
(declare-fun is_zero_n40_alt () FF0)
(declare-fun mul_n48_alt () FF0)
(declare-fun mul_n25_alt () FF0)
(declare-fun mul_n52_alt () FF0)
(declare-fun mul_n36_alt () FF0)
(declare-fun is_zero_inv_n53_alt () FF0)
(declare-fun mul_n51_alt () FF0)
(declare-fun mul_n38_alt () FF0)
(declare-fun mul_n37_alt () FF0)
(declare-fun mul_n49_alt () FF0)
(declare-fun mul_n45_alt () FF0)
(declare-fun is_zero_inv_n46_alt () FF0)
(declare-fun a_n6_alt () FF0)
(declare-fun mul_n9_alt () FF0)
(declare-fun mul_n13_alt () FF0)
(declare-fun b_n5_alt () FF0)
(declare-fun is_zero_inv_n39_alt () FF0)
(declare-fun mul_n15_alt () FF0)
(declare-fun is_zero_inv_n34_alt () FF0)
(declare-fun mul_n28_alt () FF0)
(declare-fun mul_n26_alt () FF0)
(declare-fun d_n1_alt () FF0)
(declare-fun e_n0_alt () FF0)
(declare-fun is_zero_inv_n16_alt () FF0)
(declare-fun is_zero_inv_n11_alt () FF0)
(declare-fun return_n3 () FF0)
(declare-fun is_zero_n35 () FF0)
(declare-fun mul_n44 () FF0)
(declare-fun is_zero_n12 () FF0)
(declare-fun is_zero_n47 () FF0)
(declare-fun mul_n50 () FF0)
(declare-fun mul_n21 () FF0)
(declare-fun mul_n56 () FF0)
(declare-fun mul_n59 () FF0)
(declare-fun mul_n62 () FF0)
(declare-fun mul_n42 () FF0)
(declare-fun mul_n19 () FF0)
(declare-fun is_zero_n54 () FF0)
(declare-fun mul_n63 () FF0)
(declare-fun mul_n43 () FF0)
(declare-fun mul_n55 () FF0)
(declare-fun mul_n20 () FF0)
(declare-fun mul_n58 () FF0)
(declare-fun mul_n61 () FF0)
(declare-fun mul_n29 () FF0)
(declare-fun mul_n64 () FF0)
(declare-fun is_zero_inv_n65 () FF0)
(declare-fun mul_n22 () FF0)
(declare-fun c_n2 () FF0)
(declare-fun mul_n24 () FF0)
(declare-fun mul_n7 () FF0)
(declare-fun f_n4 () FF0)
(declare-fun mul_n23 () FF0)
(declare-fun mul_n10 () FF0)
(declare-fun mul_n27 () FF0)
(declare-fun mul_n14 () FF0)
(declare-fun mul_n31 () FF0)
(declare-fun mul_n30 () FF0)
(declare-fun mul_n32 () FF0)
(declare-fun is_zero_n17 () FF0)
(declare-fun mul_n33 () FF0)
(declare-fun mul_n57 () FF0)
(declare-fun mul_n60 () FF0)
(declare-fun mul_n41 () FF0)
(declare-fun mul_n18 () FF0)
(declare-fun mul_n8 () FF0)
(declare-fun is_zero_n40 () FF0)
(declare-fun mul_n48 () FF0)
(declare-fun mul_n25 () FF0)
(declare-fun mul_n52 () FF0)
(declare-fun mul_n36 () FF0)
(declare-fun is_zero_inv_n53 () FF0)
(declare-fun mul_n51 () FF0)
(declare-fun mul_n38 () FF0)
(declare-fun mul_n37 () FF0)
(declare-fun mul_n49 () FF0)
(declare-fun mul_n45 () FF0)
(declare-fun is_zero_inv_n46 () FF0)
(declare-fun a_n6 () FF0)
(declare-fun mul_n9 () FF0)
(declare-fun mul_n13 () FF0)
(declare-fun b_n5 () FF0)
(declare-fun is_zero_inv_n39 () FF0)
(declare-fun mul_n15 () FF0)
(declare-fun is_zero_inv_n34 () FF0)
(declare-fun mul_n28 () FF0)
(declare-fun mul_n26 () FF0)
(declare-fun d_n1 () FF0)
(declare-fun e_n0 () FF0)
(declare-fun is_zero_inv_n16 () FF0)
(declare-fun is_zero_inv_n11 () FF0)
(assert 
  (let ((let0 (as ff1 FF0)))
  (let ((let1 (as ff52435875175126190479447740508185965837690552500527637822603658699938581184512 FF0)))
  (let ((let2 return_n3_alt))
  (let ((let3 (ff.mul let2 let1)))
  (let ((let4 (ff.add let3 let0)))
  (let ((let5 (as ff9 FF0)))
  (let ((let6 is_zero_n35_alt))
  (let ((let7 (ff.mul let6 let1)))
  (let ((let8 mul_n44_alt))
  (let ((let9 (ff.mul let8 let1)))
  (let ((let10 is_zero_n12_alt))
  (let ((let11 is_zero_n47_alt))
  (let ((let12 (ff.mul let11 let1)))
  (let ((let13 mul_n50_alt))
  (let ((let14 (ff.mul let13 let1)))
  (let ((let15 mul_n21_alt))
  (let ((let16 (ff.mul let15 let1)))
  (let ((let17 mul_n56_alt))
  (let ((let18 (ff.mul let17 let1)))
  (let ((let19 mul_n59_alt))
  (let ((let20 (ff.mul let19 let1)))
  (let ((let21 (as ff2 FF0)))
  (let ((let22 mul_n62_alt))
  (let ((let23 (ff.mul let22 let21)))
  (let ((let24 mul_n42_alt))
  (let ((let25 mul_n19_alt))
  (let ((let26 is_zero_n54_alt))
  (let ((let27 mul_n63_alt))
  (let ((let28 (ff.mul let27 let1)))
  (let ((let29 mul_n43_alt))
  (let ((let30 mul_n55_alt))
  (let ((let31 (ff.mul let30 let1)))
  (let ((let32 mul_n20_alt))
  (let ((let33 (ff.mul let32 let1)))
  (let ((let34 mul_n58_alt))
  (let ((let35 (ff.mul let34 let1)))
  (let ((let36 mul_n61_alt))
  (let ((let37 (ff.mul let36 let1)))
  (let ((let38 (as ff52435875175126190479447740508185965837690552500527637822603658699938581184511 FF0)))
  (let ((let39 mul_n29_alt))
  (let ((let40 (ff.mul let39 let38)))
  (let ((let41 mul_n64_alt))
  (let ((let42 (ff.mul let41 let1)))
  (let ((let43 (ff.add let42 let40 let37 let35 let33 let31 let29 let28 let26 let25 let24 let23 let20 let18 let16 let14 let12 let10 let9 let7 let5)))
  (let ((let44 is_zero_inv_n65_alt))
  (let ((let45 (ff.mul let44 let43)))
  (let ((let46 (= let45 let4)))
  (let ((let47 mul_n22_alt))
  (let ((let48 (ff.mul let47 let1)))
  (let ((let49 c_n2_alt))
  (let ((let50 mul_n24_alt))
  (let ((let51 (ff.mul let50 let1)))
  (let ((let52 mul_n7_alt))
  (let ((let53 f_n4_alt))
  (let ((let54 (ff.mul let53 let1)))
  (let ((let55 mul_n23_alt))
  (let ((let56 (ff.mul let55 let1)))
  (let ((let57 mul_n10_alt))
  (let ((let58 (ff.add let57 let56 let54 let52 let51 let49 let48 let7 let0)))
  (let ((let59 mul_n27_alt))
  (let ((let60 (ff.mul let59 let1)))
  (let ((let61 mul_n14_alt))
  (let ((let62 (ff.mul let61 let1)))
  (let ((let63 mul_n31_alt))
  (let ((let64 (ff.mul let63 let1)))
  (let ((let65 mul_n30_alt))
  (let ((let66 (ff.mul let65 let1)))
  (let ((let67 (ff.mul let39 let1)))
  (let ((let68 mul_n32_alt))
  (let ((let69 (ff.add let68 let67 let66 let64 let49 let62 let60 let21)))
  (let ((let70 (ff.mul let69 let58)))
  (let ((let71 (= let70 let41)))
  (let ((let72 (ff.add let67 let22 let0)))
  (let ((let73 (ff.add let40 let23 let21)))
  (let ((let74 (ff.mul let73 let72)))
  (let ((let75 (= let74 let27)))
  (let ((let76 is_zero_n17_alt))
  (let ((let77 mul_n33_alt))
  (let ((let78 (ff.add let39 let49 let77 let76 let38)))
  (let ((let79 (ff.mul let69 let78)))
  (let ((let80 (= let79 let22)))
  (let ((let81 (ff.add let67 let49 let16 let10 let33 let66 let0)))
  (let ((let82 mul_n57_alt))
  (let ((let83 (ff.mul let82 let1)))
  (let ((let84 mul_n60_alt))
  (let ((let85 (ff.mul let10 let1)))
  (let ((let86 (ff.mul let49 let1)))
  (let ((let87 (ff.mul let52 let1)))
  (let ((let88 (ff.mul let57 let1)))
  (let ((let89 (ff.add let88 let55 let53 let87 let86 let85 let84 let83 let47 let0)))
  (let ((let90 (ff.mul let89 let81)))
  (let ((let91 (= let90 let36)))
  (let ((let92 (ff.add let67 let57 let56 let54 let52 let49 let10 let82 let48)))
  (let ((let93 mul_n41_alt))
  (let ((let94 mul_n18_alt))
  (let ((let95 mul_n8_alt))
  (let ((let96 is_zero_n40_alt))
  (let ((let97 (ff.add let96 let95 let94 let86 let87 let93)))
  (let ((let98 (ff.mul let97 let92)))
  (let ((let99 (= let98 let84)))
  (let ((let100 (ff.mul let76 let1)))
  (let ((let101 (ff.mul let77 let1)))
  (let ((let102 (ff.add let101 let100 let86 let21)))
  (let ((let103 (ff.add let59 let61 let63 let1)))
  (let ((let104 (ff.mul let103 let102)))
  (let ((let105 (= let104 let19)))
  (let ((let106 (ff.add let51 let57 let56 let49 let54 let48 let52 let0)))
  (let ((let107 (ff.add let88 let55 let53 let87 let86 let85 let83 let47 let0)))
  (let ((let108 (ff.mul let107 let106)))
  (let ((let109 (= let108 let34)))
  (let ((let110 (ff.add let88 let55 let86 let53 let47 let87)))
  (let ((let111 (ff.mul let10 let38)))
  (let ((let112 (ff.add let111 let21)))
  (let ((let113 (ff.mul let112 let110)))
  (let ((let114 (= let113 let82)))
  (let ((let115 (ff.add let12 let0)))
  (let ((let116 (ff.mul let30 let38)))
  (let ((let117 (ff.add let116 let21)))
  (let ((let118 (ff.mul let117 let115)))
  (let ((let119 (= let118 let17)))
  (let ((let120 mul_n48_alt))
  (let ((let121 (ff.mul let120 let1)))
  (let ((let122 (ff.add let121 let86 let47 let0)))
  (let ((let123 (ff.mul let24 let1)))
  (let ((let124 (ff.add let123 let0)))
  (let ((let125 (ff.mul let124 let122)))
  (let ((let126 (= let125 let30)))
  (let ((let127 (as ff0 FF0)))
  (let ((let128 mul_n25_alt))
  (let ((let129 (ff.mul let128 let1)))
  (let ((let130 (as ff3 FF0)))
  (let ((let131 (ff.mul let47 let130)))
  (let ((let132 (ff.mul let49 let38)))
  (let ((let133 mul_n52_alt))
  (let ((let134 (ff.mul let53 let21)))
  (let ((let135 mul_n36_alt))
  (let ((let136 (ff.mul let55 let21)))
  (let ((let137 (ff.mul let52 let38)))
  (let ((let138 (ff.mul let57 let38)))
  (let ((let139 (ff.add let138 let137 let136 let135 let134 let133 let50 let132 let12 let96 let93 let131 let129 let21)))
  (let ((let140 (ff.mul let26 let139)))
  (let ((let141 (= let140 let127)))
  (let ((let142 (ff.mul let26 let1)))
  (let ((let143 (ff.add let142 let0)))
  (let ((let144 is_zero_inv_n53_alt))
  (let ((let145 (ff.mul let144 let139)))
  (let ((let146 (= let145 let143)))
  (let ((let147 (as ff52435875175126190479447740508185965837690552500527637822603658699938581184510 FF0)))
  (let ((let148 mul_n51_alt))
  (let ((let149 mul_n38_alt))
  (let ((let150 mul_n37_alt))
  (let ((let151 (ff.mul let68 let1)))
  (let ((let152 (ff.add let151 let39 let61 let65 let59 let150 let86 let63 let11 let149 let148 let147)))
  (let ((let153 (ff.add let151 let39 let61 let65 let59 let150 let86 let63 let149 let148 let38)))
  (let ((let154 (ff.mul let153 let152)))
  (let ((let155 (= let154 let133)))
  (let ((let156 (ff.mul let149 let1)))
  (let ((let157 (ff.mul let150 let1)))
  (let ((let158 (ff.mul let49 let21)))
  (let ((let159 (ff.mul let94 let1)))
  (let ((let160 (ff.mul let95 let1)))
  (let ((let161 (ff.add let68 let67 let52 let62 let66 let160 let60 let159 let158 let157 let64 let156 let21)))
  (let ((let162 (ff.add let14 let0)))
  (let ((let163 (ff.mul let162 let161)))
  (let ((let164 (= let163 let148)))
  (let ((let165 (ff.add let85 let15 let32)))
  (let ((let166 mul_n49_alt))
  (let ((let167 (ff.mul let166 let165)))
  (let ((let168 (= let167 let13)))
  (let ((let169 (ff.add let67 let66 let49 let0)))
  (let ((let170 (ff.mul let122 let169)))
  (let ((let171 (= let170 let166)))
  (let ((let172 (ff.add let132 let21)))
  (let ((let173 (ff.mul let172 let47)))
  (let ((let174 (= let173 let120)))
  (let ((let175 mul_n45_alt))
  (let ((let176 (ff.add let39 let175 let57 let33 let56 let65 let60 let51 let54 let52 let48 let6 let130)))
  (let ((let177 (ff.mul let11 let176)))
  (let ((let178 (= let177 let127)))
  (let ((let179 is_zero_inv_n46_alt))
  (let ((let180 (ff.mul let179 let176)))
  (let ((let181 (= let180 let115)))
  (let ((let182 (ff.add let39 let86 let65 let7)))
  (let ((let183 (ff.add let54 let49 let52)))
  (let ((let184 (ff.mul let183 let182)))
  (let ((let185 (= let184 let175)))
  (let ((let186 (ff.add let95 let94 let86 let87 let0)))
  (let ((let187 (ff.mul let186 let32)))
  (let ((let188 (= let187 let8)))
  (let ((let189 (ff.mul let25 let1)))
  (let ((let190 (ff.add let189 let0)))
  (let ((let191 (ff.mul let24 let38)))
  (let ((let192 (ff.add let191 let21)))
  (let ((let193 (ff.mul let192 let190)))
  (let ((let194 (= let193 let29)))
  (let ((let195 (ff.mul let97 let76)))
  (let ((let196 (= let195 let24)))
  (let ((let197 (ff.add let160 let159 let49 let52)))
  (let ((let198 (ff.mul let96 let38)))
  (let ((let199 (ff.add let198 let21)))
  (let ((let200 (ff.mul let199 let197)))
  (let ((let201 (= let200 let93)))
  (let ((let202 a_n6_alt))
  (let ((let203 mul_n9_alt))
  (let ((let204 (ff.mul let203 let1)))
  (let ((let205 (ff.mul let135 let21)))
  (let ((let206 mul_n13_alt))
  (let ((let207 (ff.mul let47 let21)))
  (let ((let208 b_n5_alt))
  (let ((let209 (ff.mul let208 let1)))
  (let ((let210 (ff.add let67 let136 let33 let76 let61 let150 let63 let209 let129 let207 let206 let138 let137 let205 let134 let77 let59 let66 let16 let10 let204 let149 let202 let130)))
  (let ((let211 (ff.mul let96 let210)))
  (let ((let212 (= let211 let127)))
  (let ((let213 (ff.mul let96 let1)))
  (let ((let214 (ff.add let213 let0)))
  (let ((let215 is_zero_inv_n39_alt))
  (let ((let216 (ff.mul let215 let210)))
  (let ((let217 (= let216 let214)))
  (let ((let218 (ff.add let157 let0)))
  (let ((let219 (as ff4 FF0)))
  (let ((let220 (ff.mul let59 let38)))
  (let ((let221 (ff.mul let61 let38)))
  (let ((let222 (ff.mul let63 let38)))
  (let ((let223 (ff.mul let65 let38)))
  (let ((let224 (ff.mul let68 let21)))
  (let ((let225 (ff.add let224 let40 let223 let222 let158 let221 let220 let219)))
  (let ((let226 (ff.mul let225 let218)))
  (let ((let227 (= let226 let149)))
  (let ((let228 (ff.add let39 let65 let86)))
  (let ((let229 (ff.mul let228 let128)))
  (let ((let230 (= let229 let150)))
  (let ((let231 mul_n15_alt))
  (let ((let232 (ff.add let57 let56 let54 let52 let61 let49 let231 let10 let48 let1)))
  (let ((let233 (ff.mul let6 let232)))
  (let ((let234 (= let233 let135)))
  (let ((let235 (ff.add let10 let203 let48 let33 let21)))
  (let ((let236 (ff.mul let6 let235)))
  (let ((let237 (= let236 let127)))
  (let ((let238 (ff.add let7 let0)))
  (let ((let239 is_zero_inv_n34_alt))
  (let ((let240 (ff.mul let239 let235)))
  (let ((let241 (= let240 let238)))
  (let ((let242 (ff.add let86 let0)))
  (let ((let243 (ff.mul let76 let38)))
  (let ((let244 (ff.add let243 let21)))
  (let ((let245 (ff.mul let244 let242)))
  (let ((let246 (= let245 let77)))
  (let ((let247 (ff.mul let63 let21)))
  (let ((let248 (ff.mul let61 let21)))
  (let ((let249 (ff.mul let59 let21)))
  (let ((let250 (ff.add let249 let248 let247 let38)))
  (let ((let251 (ff.mul let250 let228)))
  (let ((let252 (= let251 let68)))
  (let ((let253 (ff.add let62 let0)))
  (let ((let254 (ff.add let220 let21)))
  (let ((let255 (ff.mul let254 let253)))
  (let ((let256 (= let255 let63)))
  (let ((let257 (ff.add let40 let21)))
  (let ((let258 (ff.mul let257 let49)))
  (let ((let259 (= let258 let65)))
  (let ((let260 (ff.mul let206 let1)))
  (let ((let261 (ff.add let10 let260 let208)))
  (let ((let262 mul_n28_alt))
  (let ((let263 (ff.mul let262 let261)))
  (let ((let264 (= let263 let39)))
  (let ((let265 (ff.mul let59 let47)))
  (let ((let266 (= let265 let262)))
  (let ((let267 mul_n26_alt))
  (let ((let268 (ff.mul let267 let10)))
  (let ((let269 (= let268 let59)))
  (let ((let270 (ff.add let160 let49 let52)))
  (let ((let271 (ff.add let33 let0)))
  (let ((let272 (ff.mul let271 let270)))
  (let ((let273 (= let272 let267)))
  (let ((let274 (ff.add let10 let16 let33 let0)))
  (let ((let275 (ff.add let50 let88 let55 let86 let53 let47 let87)))
  (let ((let276 (ff.mul let275 let274)))
  (let ((let277 (= let276 let128)))
  (let ((let278 (ff.add let52 let57 let56 let49 let100 let54 let48 let0)))
  (let ((let279 d_n1_alt))
  (let ((let280 (ff.mul let279 let278)))
  (let ((let281 (= let280 let50)))
  (let ((let282 (ff.add let57 let49 let54 let52)))
  (let ((let283 (ff.mul let47 let38)))
  (let ((let284 (ff.add let283 let21)))
  (let ((let285 (ff.mul let284 let282)))
  (let ((let286 (= let285 let55)))
  (let ((let287 (ff.add let209 let0)))
  (let ((let288 (ff.mul let287 let61)))
  (let ((let289 (= let288 let47)))
  (let ((let290 (ff.mul let10 let21)))
  (let ((let291 (ff.mul let290 let271)))
  (let ((let292 (= let291 let15)))
  (let ((let293 (ff.mul let282 let287)))
  (let ((let294 (= let293 let32)))
  (let ((let295 (ff.mul let53 let197)))
  (let ((let296 (= let295 let25)))
  (let ((let297 (ff.add let160 let49 let52 let204)))
  (let ((let298 (ff.mul let76 let297)))
  (let ((let299 (= let298 let94)))
  (let ((let300 (as ff5 FF0)))
  (let ((let301 (ff.mul let231 let1)))
  (let ((let302 e_n0_alt))
  (let ((let303 (ff.mul let302 let1)))
  (let ((let304 (ff.add let303 let88 let301 let87 let85 let62 let86 let300)))
  (let ((let305 (ff.mul let76 let304)))
  (let ((let306 (= let305 let127)))
  (let ((let307 (ff.add let100 let0)))
  (let ((let308 is_zero_inv_n16_alt))
  (let ((let309 (ff.mul let308 let304)))
  (let ((let310 (= let309 let307)))
  (let ((let311 (ff.mul let112 let253)))
  (let ((let312 (= let311 let231)))
  (let ((let313 (ff.add let303 let0)))
  (let ((let314 (ff.add let85 let206 let209 let0)))
  (let ((let315 (ff.mul let314 let313)))
  (let ((let316 (= let315 let61)))
  (let ((let317 (ff.mul let290 let208)))
  (let ((let318 (= let317 let206)))
  (let ((let319 (ff.mul let202 let38)))
  (let ((let320 (ff.add let303 let86 let319 let219)))
  (let ((let321 (ff.mul let10 let320)))
  (let ((let322 (= let321 let127)))
  (let ((let323 (ff.add let85 let0)))
  (let ((let324 is_zero_inv_n11_alt))
  (let ((let325 (ff.mul let324 let320)))
  (let ((let326 (= let325 let323)))
  (let ((let327 (ff.add let86 let87 let53 let279)))
  (let ((let328 (ff.mul let279 let327)))
  (let ((let329 (= let328 let57)))
  (let ((let330 (ff.mul let49 let270)))
  (let ((let331 (= let330 let203)))
  (let ((let332 (ff.mul let52 let21)))
  (let ((let333 (ff.mul let53 let38)))
  (let ((let334 (ff.add let333 let158 let332)))
  (let ((let335 (ff.mul let334 let53)))
  (let ((let336 (= let335 let95)))
  (let ((let337 (ff.mul let134 let242)))
  (let ((let338 (= let337 let52)))
  (let ((let339 (and let338 let336 let331 let329 let326 let322 let318 let316 let312 let310 let306 let299 let296 let294 let292 let289 let286 let281 let277 let273 let269 let266 let264 let259 let256 let252 let246 let241 let237 let234 let230 let227 let217 let212 let201 let196 let194 let188 let185 let181 let178 let174 let171 let168 let164 let155 let146 let141 let126 let119 let114 let109 let105 let99 let91 let80 let75 let71 let46)))
  (let ((let340 return_n3))
  (let ((let341 (ff.mul let340 let1)))
  (let ((let342 (ff.add let341 let0)))
  (let ((let343 is_zero_n35))
  (let ((let344 (ff.mul let343 let1)))
  (let ((let345 mul_n44))
  (let ((let346 (ff.mul let345 let1)))
  (let ((let347 is_zero_n12))
  (let ((let348 is_zero_n47))
  (let ((let349 (ff.mul let348 let1)))
  (let ((let350 mul_n50))
  (let ((let351 (ff.mul let350 let1)))
  (let ((let352 mul_n21))
  (let ((let353 (ff.mul let352 let1)))
  (let ((let354 mul_n56))
  (let ((let355 (ff.mul let354 let1)))
  (let ((let356 mul_n59))
  (let ((let357 (ff.mul let356 let1)))
  (let ((let358 mul_n62))
  (let ((let359 (ff.mul let358 let21)))
  (let ((let360 mul_n42))
  (let ((let361 mul_n19))
  (let ((let362 is_zero_n54))
  (let ((let363 mul_n63))
  (let ((let364 (ff.mul let363 let1)))
  (let ((let365 mul_n43))
  (let ((let366 mul_n55))
  (let ((let367 (ff.mul let366 let1)))
  (let ((let368 mul_n20))
  (let ((let369 (ff.mul let368 let1)))
  (let ((let370 mul_n58))
  (let ((let371 (ff.mul let370 let1)))
  (let ((let372 mul_n61))
  (let ((let373 (ff.mul let372 let1)))
  (let ((let374 mul_n29))
  (let ((let375 (ff.mul let374 let38)))
  (let ((let376 mul_n64))
  (let ((let377 (ff.mul let376 let1)))
  (let ((let378 (ff.add let377 let375 let373 let371 let369 let367 let365 let364 let362 let361 let360 let359 let357 let355 let353 let351 let349 let347 let346 let344 let5)))
  (let ((let379 is_zero_inv_n65))
  (let ((let380 (ff.mul let379 let378)))
  (let ((let381 (= let380 let342)))
  (let ((let382 mul_n22))
  (let ((let383 (ff.mul let382 let1)))
  (let ((let384 c_n2))
  (let ((let385 mul_n24))
  (let ((let386 (ff.mul let385 let1)))
  (let ((let387 mul_n7))
  (let ((let388 f_n4))
  (let ((let389 (ff.mul let388 let1)))
  (let ((let390 mul_n23))
  (let ((let391 (ff.mul let390 let1)))
  (let ((let392 mul_n10))
  (let ((let393 (ff.add let392 let391 let389 let387 let386 let384 let383 let344 let0)))
  (let ((let394 mul_n27))
  (let ((let395 (ff.mul let394 let1)))
  (let ((let396 mul_n14))
  (let ((let397 (ff.mul let396 let1)))
  (let ((let398 mul_n31))
  (let ((let399 (ff.mul let398 let1)))
  (let ((let400 mul_n30))
  (let ((let401 (ff.mul let400 let1)))
  (let ((let402 (ff.mul let374 let1)))
  (let ((let403 mul_n32))
  (let ((let404 (ff.add let403 let402 let401 let399 let384 let397 let395 let21)))
  (let ((let405 (ff.mul let404 let393)))
  (let ((let406 (= let405 let376)))
  (let ((let407 (ff.add let402 let358 let0)))
  (let ((let408 (ff.add let375 let359 let21)))
  (let ((let409 (ff.mul let408 let407)))
  (let ((let410 (= let409 let363)))
  (let ((let411 is_zero_n17))
  (let ((let412 mul_n33))
  (let ((let413 (ff.add let374 let384 let412 let411 let38)))
  (let ((let414 (ff.mul let404 let413)))
  (let ((let415 (= let414 let358)))
  (let ((let416 (ff.add let402 let384 let353 let347 let369 let401 let0)))
  (let ((let417 mul_n57))
  (let ((let418 (ff.mul let417 let1)))
  (let ((let419 mul_n60))
  (let ((let420 (ff.mul let347 let1)))
  (let ((let421 (ff.mul let384 let1)))
  (let ((let422 (ff.mul let387 let1)))
  (let ((let423 (ff.mul let392 let1)))
  (let ((let424 (ff.add let423 let390 let388 let422 let421 let420 let419 let418 let382 let0)))
  (let ((let425 (ff.mul let424 let416)))
  (let ((let426 (= let425 let372)))
  (let ((let427 (ff.add let402 let392 let391 let389 let387 let384 let347 let417 let383)))
  (let ((let428 mul_n41))
  (let ((let429 mul_n18))
  (let ((let430 mul_n8))
  (let ((let431 is_zero_n40))
  (let ((let432 (ff.add let431 let430 let429 let421 let422 let428)))
  (let ((let433 (ff.mul let432 let427)))
  (let ((let434 (= let433 let419)))
  (let ((let435 (ff.mul let411 let1)))
  (let ((let436 (ff.mul let412 let1)))
  (let ((let437 (ff.add let436 let435 let421 let21)))
  (let ((let438 (ff.add let394 let396 let398 let1)))
  (let ((let439 (ff.mul let438 let437)))
  (let ((let440 (= let439 let356)))
  (let ((let441 (ff.add let386 let392 let391 let384 let389 let383 let387 let0)))
  (let ((let442 (ff.add let423 let390 let388 let422 let421 let420 let418 let382 let0)))
  (let ((let443 (ff.mul let442 let441)))
  (let ((let444 (= let443 let370)))
  (let ((let445 (ff.add let423 let390 let421 let388 let382 let422)))
  (let ((let446 (ff.mul let347 let38)))
  (let ((let447 (ff.add let446 let21)))
  (let ((let448 (ff.mul let447 let445)))
  (let ((let449 (= let448 let417)))
  (let ((let450 (ff.add let349 let0)))
  (let ((let451 (ff.mul let366 let38)))
  (let ((let452 (ff.add let451 let21)))
  (let ((let453 (ff.mul let452 let450)))
  (let ((let454 (= let453 let354)))
  (let ((let455 mul_n48))
  (let ((let456 (ff.mul let455 let1)))
  (let ((let457 (ff.add let456 let421 let382 let0)))
  (let ((let458 (ff.mul let360 let1)))
  (let ((let459 (ff.add let458 let0)))
  (let ((let460 (ff.mul let459 let457)))
  (let ((let461 (= let460 let366)))
  (let ((let462 mul_n25))
  (let ((let463 (ff.mul let462 let1)))
  (let ((let464 (ff.mul let382 let130)))
  (let ((let465 (ff.mul let384 let38)))
  (let ((let466 mul_n52))
  (let ((let467 (ff.mul let388 let21)))
  (let ((let468 mul_n36))
  (let ((let469 (ff.mul let390 let21)))
  (let ((let470 (ff.mul let387 let38)))
  (let ((let471 (ff.mul let392 let38)))
  (let ((let472 (ff.add let471 let470 let469 let468 let467 let466 let385 let465 let349 let431 let428 let464 let463 let21)))
  (let ((let473 (ff.mul let362 let472)))
  (let ((let474 (= let473 let127)))
  (let ((let475 (ff.mul let362 let1)))
  (let ((let476 (ff.add let475 let0)))
  (let ((let477 is_zero_inv_n53))
  (let ((let478 (ff.mul let477 let472)))
  (let ((let479 (= let478 let476)))
  (let ((let480 mul_n51))
  (let ((let481 mul_n38))
  (let ((let482 mul_n37))
  (let ((let483 (ff.mul let403 let1)))
  (let ((let484 (ff.add let483 let374 let396 let400 let394 let482 let421 let398 let348 let481 let480 let147)))
  (let ((let485 (ff.add let483 let374 let396 let400 let394 let482 let421 let398 let481 let480 let38)))
  (let ((let486 (ff.mul let485 let484)))
  (let ((let487 (= let486 let466)))
  (let ((let488 (ff.mul let481 let1)))
  (let ((let489 (ff.mul let482 let1)))
  (let ((let490 (ff.mul let384 let21)))
  (let ((let491 (ff.mul let429 let1)))
  (let ((let492 (ff.mul let430 let1)))
  (let ((let493 (ff.add let403 let402 let387 let397 let401 let492 let395 let491 let490 let489 let399 let488 let21)))
  (let ((let494 (ff.add let351 let0)))
  (let ((let495 (ff.mul let494 let493)))
  (let ((let496 (= let495 let480)))
  (let ((let497 (ff.add let420 let352 let368)))
  (let ((let498 mul_n49))
  (let ((let499 (ff.mul let498 let497)))
  (let ((let500 (= let499 let350)))
  (let ((let501 (ff.add let402 let401 let384 let0)))
  (let ((let502 (ff.mul let457 let501)))
  (let ((let503 (= let502 let498)))
  (let ((let504 (ff.add let465 let21)))
  (let ((let505 (ff.mul let504 let382)))
  (let ((let506 (= let505 let455)))
  (let ((let507 mul_n45))
  (let ((let508 (ff.add let374 let507 let392 let369 let391 let400 let395 let386 let389 let387 let383 let343 let130)))
  (let ((let509 (ff.mul let348 let508)))
  (let ((let510 (= let509 let127)))
  (let ((let511 is_zero_inv_n46))
  (let ((let512 (ff.mul let511 let508)))
  (let ((let513 (= let512 let450)))
  (let ((let514 (ff.add let374 let421 let400 let344)))
  (let ((let515 (ff.add let389 let384 let387)))
  (let ((let516 (ff.mul let515 let514)))
  (let ((let517 (= let516 let507)))
  (let ((let518 (ff.add let430 let429 let421 let422 let0)))
  (let ((let519 (ff.mul let518 let368)))
  (let ((let520 (= let519 let345)))
  (let ((let521 (ff.mul let361 let1)))
  (let ((let522 (ff.add let521 let0)))
  (let ((let523 (ff.mul let360 let38)))
  (let ((let524 (ff.add let523 let21)))
  (let ((let525 (ff.mul let524 let522)))
  (let ((let526 (= let525 let365)))
  (let ((let527 (ff.mul let432 let411)))
  (let ((let528 (= let527 let360)))
  (let ((let529 (ff.add let492 let491 let384 let387)))
  (let ((let530 (ff.mul let431 let38)))
  (let ((let531 (ff.add let530 let21)))
  (let ((let532 (ff.mul let531 let529)))
  (let ((let533 (= let532 let428)))
  (let ((let534 a_n6))
  (let ((let535 mul_n9))
  (let ((let536 (ff.mul let535 let1)))
  (let ((let537 (ff.mul let468 let21)))
  (let ((let538 mul_n13))
  (let ((let539 (ff.mul let382 let21)))
  (let ((let540 b_n5))
  (let ((let541 (ff.mul let540 let1)))
  (let ((let542 (ff.add let402 let469 let369 let411 let396 let482 let398 let541 let463 let539 let538 let471 let470 let537 let467 let412 let394 let401 let353 let347 let536 let481 let534 let130)))
  (let ((let543 (ff.mul let431 let542)))
  (let ((let544 (= let543 let127)))
  (let ((let545 (ff.mul let431 let1)))
  (let ((let546 (ff.add let545 let0)))
  (let ((let547 is_zero_inv_n39))
  (let ((let548 (ff.mul let547 let542)))
  (let ((let549 (= let548 let546)))
  (let ((let550 (ff.add let489 let0)))
  (let ((let551 (ff.mul let394 let38)))
  (let ((let552 (ff.mul let396 let38)))
  (let ((let553 (ff.mul let398 let38)))
  (let ((let554 (ff.mul let400 let38)))
  (let ((let555 (ff.mul let403 let21)))
  (let ((let556 (ff.add let555 let375 let554 let553 let490 let552 let551 let219)))
  (let ((let557 (ff.mul let556 let550)))
  (let ((let558 (= let557 let481)))
  (let ((let559 (ff.add let374 let400 let421)))
  (let ((let560 (ff.mul let559 let462)))
  (let ((let561 (= let560 let482)))
  (let ((let562 mul_n15))
  (let ((let563 (ff.add let392 let391 let389 let387 let396 let384 let562 let347 let383 let1)))
  (let ((let564 (ff.mul let343 let563)))
  (let ((let565 (= let564 let468)))
  (let ((let566 (ff.add let347 let535 let383 let369 let21)))
  (let ((let567 (ff.mul let343 let566)))
  (let ((let568 (= let567 let127)))
  (let ((let569 (ff.add let344 let0)))
  (let ((let570 is_zero_inv_n34))
  (let ((let571 (ff.mul let570 let566)))
  (let ((let572 (= let571 let569)))
  (let ((let573 (ff.add let421 let0)))
  (let ((let574 (ff.mul let411 let38)))
  (let ((let575 (ff.add let574 let21)))
  (let ((let576 (ff.mul let575 let573)))
  (let ((let577 (= let576 let412)))
  (let ((let578 (ff.mul let398 let21)))
  (let ((let579 (ff.mul let396 let21)))
  (let ((let580 (ff.mul let394 let21)))
  (let ((let581 (ff.add let580 let579 let578 let38)))
  (let ((let582 (ff.mul let581 let559)))
  (let ((let583 (= let582 let403)))
  (let ((let584 (ff.add let397 let0)))
  (let ((let585 (ff.add let551 let21)))
  (let ((let586 (ff.mul let585 let584)))
  (let ((let587 (= let586 let398)))
  (let ((let588 (ff.add let375 let21)))
  (let ((let589 (ff.mul let588 let384)))
  (let ((let590 (= let589 let400)))
  (let ((let591 (ff.mul let538 let1)))
  (let ((let592 (ff.add let347 let591 let540)))
  (let ((let593 mul_n28))
  (let ((let594 (ff.mul let593 let592)))
  (let ((let595 (= let594 let374)))
  (let ((let596 (ff.mul let394 let382)))
  (let ((let597 (= let596 let593)))
  (let ((let598 mul_n26))
  (let ((let599 (ff.mul let598 let347)))
  (let ((let600 (= let599 let394)))
  (let ((let601 (ff.add let492 let384 let387)))
  (let ((let602 (ff.add let369 let0)))
  (let ((let603 (ff.mul let602 let601)))
  (let ((let604 (= let603 let598)))
  (let ((let605 (ff.add let347 let353 let369 let0)))
  (let ((let606 (ff.add let385 let423 let390 let421 let388 let382 let422)))
  (let ((let607 (ff.mul let606 let605)))
  (let ((let608 (= let607 let462)))
  (let ((let609 (ff.add let387 let392 let391 let384 let435 let389 let383 let0)))
  (let ((let610 d_n1))
  (let ((let611 (ff.mul let610 let609)))
  (let ((let612 (= let611 let385)))
  (let ((let613 (ff.add let392 let384 let389 let387)))
  (let ((let614 (ff.mul let382 let38)))
  (let ((let615 (ff.add let614 let21)))
  (let ((let616 (ff.mul let615 let613)))
  (let ((let617 (= let616 let390)))
  (let ((let618 (ff.add let541 let0)))
  (let ((let619 (ff.mul let618 let396)))
  (let ((let620 (= let619 let382)))
  (let ((let621 (ff.mul let347 let21)))
  (let ((let622 (ff.mul let621 let602)))
  (let ((let623 (= let622 let352)))
  (let ((let624 (ff.mul let613 let618)))
  (let ((let625 (= let624 let368)))
  (let ((let626 (ff.mul let388 let529)))
  (let ((let627 (= let626 let361)))
  (let ((let628 (ff.add let492 let384 let387 let536)))
  (let ((let629 (ff.mul let411 let628)))
  (let ((let630 (= let629 let429)))
  (let ((let631 (ff.mul let562 let1)))
  (let ((let632 e_n0))
  (let ((let633 (ff.mul let632 let1)))
  (let ((let634 (ff.add let633 let423 let631 let422 let420 let397 let421 let300)))
  (let ((let635 (ff.mul let411 let634)))
  (let ((let636 (= let635 let127)))
  (let ((let637 (ff.add let435 let0)))
  (let ((let638 is_zero_inv_n16))
  (let ((let639 (ff.mul let638 let634)))
  (let ((let640 (= let639 let637)))
  (let ((let641 (ff.mul let447 let584)))
  (let ((let642 (= let641 let562)))
  (let ((let643 (ff.add let633 let0)))
  (let ((let644 (ff.add let420 let538 let541 let0)))
  (let ((let645 (ff.mul let644 let643)))
  (let ((let646 (= let645 let396)))
  (let ((let647 (ff.mul let621 let540)))
  (let ((let648 (= let647 let538)))
  (let ((let649 (ff.mul let534 let38)))
  (let ((let650 (ff.add let633 let421 let649 let219)))
  (let ((let651 (ff.mul let347 let650)))
  (let ((let652 (= let651 let127)))
  (let ((let653 (ff.add let420 let0)))
  (let ((let654 is_zero_inv_n11))
  (let ((let655 (ff.mul let654 let650)))
  (let ((let656 (= let655 let653)))
  (let ((let657 (ff.add let421 let422 let388 let610)))
  (let ((let658 (ff.mul let610 let657)))
  (let ((let659 (= let658 let392)))
  (let ((let660 (ff.mul let384 let601)))
  (let ((let661 (= let660 let535)))
  (let ((let662 (ff.mul let387 let21)))
  (let ((let663 (ff.mul let388 let38)))
  (let ((let664 (ff.add let663 let490 let662)))
  (let ((let665 (ff.mul let664 let388)))
  (let ((let666 (= let665 let430)))
  (let ((let667 (ff.mul let467 let573)))
  (let ((let668 (= let667 let387)))
  (let ((let669 (and let668 let666 let661 let659 let656 let652 let648 let646 let642 let640 let636 let630 let627 let625 let623 let620 let617 let612 let608 let604 let600 let597 let595 let590 let587 let583 let577 let572 let568 let565 let561 let558 let549 let544 let533 let528 let526 let520 let517 let513 let510 let506 let503 let500 let496 let487 let479 let474 let461 let454 let449 let444 let440 let434 let426 let415 let410 let406 let381)))
  (let ((let670 (= let340 let2)))
  (let ((let671 (not let670)))
  (let ((let672 (= let610 let279)))
  (let ((let673 (= let534 let202)))
  (let ((let674 (= let632 let302)))
  (let ((let675 (= let384 let49)))
  (let ((let676 (= let388 let53)))
  (let ((let677 (= let540 let208)))
  (let ((let678 (and let677 let676 let675 let674 let673 let672)))
  (let ((let679 (and let678 let671 let669 let339)))
  let679
))))))))))))))))))))))))))))))))))))))))))))))))))))))))))))))))))))))))))))))))))))))))))))))))))))))))))))))))))))))))))))))))))))))))))))))))))))))))))))))))))))))))))))))))))))))))))))))))))))))))))))))))))))))))))))))))))))))))))))))))))))))))))))))))))))))))))))))))))))))))))))))))))))))))))))))))))))))))))))))))))))))))))))))))))))))))))))))))))))))))))))))))))))))))))))))))))))))))))))))))))))))))))))))))))))))))))))))))))))))))))))))))))))))))))))))))))))))))))))))))))))))))))))))))))))))))))))))))))))))))))))))))))))))))))))))))))))))))))))))))))))))))))))))))))))))))))))))))))))))))))))))))))))))))))))))))))))))))))))))))))))))))))))))))))))))))))))))))))))))))
)
(check-sat)
